669
1 0 5 645 1 646 1 629 1 630 1 631 1
2 0 5 253 1 585 1 535 1 28 1 308 1
3 0 5 139 1 617 1 506 1 26 1 405 1
4 0 5 52 1 56 1 269 1 273 1 67 1
5 0 5 247 1 505 1 401 1 396 1 483 1
6 0 5 369 1 493 1 360 1 27 1 325 1
7 0 5 270 1 226 1 395 1 555 1 460 1
8 0 5 218 1 182 1 398 1 135 1 514 1
9 0 5 187 1 149 1 194 1 39 1 572 1
10 0 5 297 1 405 1 551 1 209 1 392 1
11 0 5 237 1 19 1 514 1 626 1 351 1
12 0 5 439 1 86 1 185 1 72 1 361 1
13 0 5 185 1 357 1 315 1 33 1 43 1
14 0 5 554 1 518 1 415 1 81 1 498 1
15 0 5 372 1 517 1 310 1 324 1 343 1
16 0 5 372 1 356 1 235 1 324 1 310 1
17 0 5 126 1 471 1 479 1 536 1 442 1
18 0 5 163 1 417 1 600 1 569 1 352 1
19 0 5 626 1 11 1 237 1 514 1 434 1
20 0 5 197 1 599 1 32 1 116 1 507 1
21 0 5 241 1 219 1 574 1 437 1 473 1
22 0 5 23 1 343 1 87 1 620 1 54 1
23 0 5 22 1 87 1 620 1 113 1 343 1
24 0 5 373 1 602 1 480 1 470 1 508 1
25 0 5 105 1 175 1 342 1 472 1 234 1
26 0 5 506 1 583 1 139 1 617 1 3 1
27 0 5 524 1 162 1 102 1 302 1 6 1
28 0 5 165 1 491 1 253 1 585 1 2 1
29 0 5 84 1 459 1 563 1 436 1 81 1
30 0 5 503 1 433 1 629 1 630 1 631 1
31 0 5 178 1 468 1 375 1 145 1 425 1
32 0 5 594 1 599 1 507 1 20 1 116 1
33 0 5 315 1 127 1 328 1 541 1 323 1
34 0 5 385 1 473 1 379 1 120 1 501 1
35 0 5 370 1 115 1 151 1 300 1 99 1
36 0 5 98 1 481 1 336 1 314 1 130 1
37 0 5 107 1 595 1 618 1 62 1 450 1
38 0 5 586 1 386 1 147 1 406 1 252 1
39 0 5 427 1 568 1 149 1 194 1 9 1
40 0 5 121 1 406 1 492 1 252 1 272 1
41 0 5 431 1 589 1 529 1 622 1 205 1
42 0 5 233 1 214 1 624 1 424 1 70 1
43 0 5 57 1 315 1 353 1 423 1 33 1
44 0 5 449 1 610 1 418 1 145 1 190 1
45 0 5 596 1 494 1 573 1 173 1 341 1
46 0 5 568 1 220 1 383 1 149 1 39 1
47 0 5 257 1 244 1 273 1 423 1 269 1
48 0 5 567 1 418 1 64 1 145 1 449 1
49 0 5 624 1 572 1 243 1 382 1 374 1
50 0 5 212 1 146 1 278 1 322 1 580 1
51 0 5 357 1 597 1 503 1 584 1 433 1
52 0 5 59 1 205 1 111 1 4 1 444 1
53 0 5 249 1 106 1 294 1 337 1 296 1
54 0 5 78 1 593 1 22 1 343 1 23 1
55 0 5 99 1 370 1 545 1 66 1 468 1
56 0 5 4 1 205 1 111 1 622 1 59 1
57 0 5 346 1 397 1 43 1 328 1 13 1
58 0 5 314 1 91 1 481 1 336 1 119 1
59 0 5 52 1 433 1 255 1 56 1 286 1
60 0 5 235 1 553 1 521 1 356 1 16 1
61 0 5 562 1 123 1 183 1 225 1 271 1
62 0 5 618 1 107 1 450 1 37 1 154 1
63 0 5 251 1 76 1 547 1 455 1 326 1
64 0 5 418 1 48 1 491 1 449 1 567 1
65 0 5 192 1 534 1 245 1 436 1 136 1
66 0 5 545 1 522 1 55 1 99 1 370 1
67 0 5 558 1 622 1 4 1 111 1 589 1
68 0 5 400 1 258 1 409 1 236 1 469 1
69 0 5 173 1 309 1 260 1 619 1 364 1
70 0 5 233 1 424 1 133 1 512 1 42 1
71 0 5 613 1 322 1 146 1 152 1 50 1
72 0 5 276 1 348 1 280 1 577 1 287 1
73 0 5 265 1 574 1 426 1 303 1 411 1
74 0 5 432 1 152 1 344 1 391 1 227 1
75 0 5 125 1 93 1 85 1 358 1 156 1
76 0 5 63 1 290 1 251 1 547 1 455 1
77 0 5 394 1 204 1 535 1 104 1 242 1
78 0 5 389 1 593 1 54 1 460 1 456 1
79 0 5 136 1 313 1 283 1 563 1 459 1
80 0 5 157 1 248 1 266 1 202 1 509 1
81 0 5 554 1 415 1 14 1 245 1 518 1
82 0 5 217 1 595 1 134 1 37 1 465 1
83 0 5 484 1 592 1 315 1 538 1 423 1
84 0 5 459 1 29 1 563 1 436 1 81 1
85 0 5 144 1 542 1 288 1 75 1 298 1
86 0 5 12 1 361 1 562 1 439 1 185 1
87 0 5 620 1 23 1 96 1 22 1 193 1
88 0 5 376 1 421 1 146 1 350 1 598 1
89 0 5 612 1 327 1 188 1 349 1 463 1
90 0 5 352 1 479 1 471 1 417 1 298 1
91 0 5 282 1 467 1 359 1 58 1 557 1
92 0 5 155 1 317 1 335 1 495 1 486 1
93 0 5 156 1 125 1 326 1 358 1 75 1
94 0 5 117 1 97 1 540 1 549 1 129 1
95 0 5 526 1 101 1 442 1 330 1 254 1
96 0 5 620 1 553 1 87 1 193 1 235 1
97 0 5 540 1 549 1 591 1 94 1 129 1
98 0 5 36 1 130 1 201 1 119 1 551 1
99 0 5 55 1 370 1 545 1 468 1 66 1
100 0 5 222 1 203 1 239 1 379 1 501 1
101 0 5 305 1 530 1 95 1 330 1 559 1
102 0 5 609 1 27 1 420 1 485 1 457 1
103 0 5 148 1 311 1 566 1 254 1 113 1
104 0 5 204 1 308 1 313 1 283 1 77 1
105 0 5 477 1 25 1 342 1 571 1 367 1
106 0 5 53 1 296 1 518 1 459 1 249 1
107 0 5 37 1 618 1 595 1 62 1 450 1
108 0 5 510 1 229 1 264 1 109 1 332 1
109 0 5 264 1 446 1 229 1 108 1 510 1
110 0 5 284 1 262 1 578 1 544 1 305 1
111 0 5 52 1 56 1 273 1 269 1 67 1
112 0 5 512 1 150 1 277 1 362 1 548 1
113 0 5 148 1 103 1 254 1 311 1 566 1
114 0 5 158 1 197 1 599 1 20 1 594 1
115 0 5 300 1 35 1 172 1 380 1 498 1
116 0 5 174 1 507 1 20 1 588 1 32 1
117 0 5 94 1 334 1 607 1 549 1 200 1
118 0 5 480 1 445 1 602 1 482 1 425 1
119 0 5 336 1 201 1 98 1 314 1 36 1
120 0 5 473 1 318 1 385 1 268 1 131 1
121 0 5 492 1 40 1 221 1 608 1 406 1
122 0 5 606 1 467 1 336 1 475 1 359 1
123 0 5 579 1 490 1 61 1 434 1 329 1
124 0 5 246 1 431 1 520 1 589 1 558 1
125 0 5 75 1 93 1 326 1 358 1 76 1
126 0 5 17 1 523 1 479 1 330 1 530 1
127 0 5 33 1 315 1 541 1 323 1 328 1
128 0 5 591 1 92 1 549 1 489 1 540 1
129 0 5 591 1 540 1 97 1 94 1 404 1
130 0 5 551 1 304 1 392 1 36 1 98 1
131 0 5 268 1 120 1 476 1 473 1 219 1
132 0 5 333 1 199 1 504 1 441 1 543 1
133 0 5 512 1 150 1 548 1 180 1 277 1
134 0 5 595 1 217 1 82 1 37 1 618 1
135 0 5 466 1 8 1 514 1 259 1 182 1
136 0 5 79 1 563 1 313 1 459 1 65 1
137 0 5 412 1 564 1 557 1 547 1 455 1
138 0 5 276 1 556 1 280 1 448 1 329 1
139 0 5 583 1 26 1 506 1 3 1 617 1
140 0 5 264 1 446 1 109 1 389 1 555 1
141 0 5 353 1 597 1 403 1 433 1 357 1
142 0 5 472 1 175 1 453 1 25 1 342 1
143 0 5 489 1 128 1 387 1 625 1 627 1
144 0 5 85 1 261 1 288 1 483 1 505 1
145 0 5 418 1 44 1 375 1 48 1 31 1
146 0 5 322 1 212 1 613 1 50 1 71 1
147 0 5 347 1 586 1 38 1 386 1 571 1
148 0 5 103 1 311 1 566 1 113 1 254 1
149 0 5 568 1 187 1 39 1 9 1 46 1
150 0 5 112 1 216 1 133 1 512 1 277 1
151 0 5 319 1 35 1 419 1 370 1 99 1
152 0 5 207 1 74 1 613 1 322 1 71 1
153 0 5 341 1 524 1 494 1 573 1 162 1
154 0 5 238 1 450 1 62 1 15 1 343 1
155 0 5 92 1 487 1 317 1 228 1 307 1
156 0 5 462 1 93 1 75 1 326 1 358 1
157 0 5 80 1 266 1 248 1 515 1 509 1
158 0 5 114 1 197 1 599 1 20 1 594 1
159 0 5 246 1 399 1 398 1 8 1 124 1
160 0 5 293 1 539 1 451 1 374 1 548 1
161 0 5 579 1 604 1 421 1 350 1 180 1
162 0 5 524 1 27 1 302 1 153 1 102 1
163 0 5 417 1 18 1 600 1 352 1 581 1
164 0 5 433 1 286 1 56 1 255 1 256 1
165 0 5 28 1 491 1 64 1 449 1 253 1
166 0 5 52 1 286 1 56 1 269 1 273 1
167 0 5 353 1 597 1 286 1 315 1 323 1
168 0 5 351 1 224 1 237 1 331 1 19 1
169 0 5 261 1 505 1 483 1 583 1 144 1
170 0 5 597 1 353 1 315 1 323 1 33 1
171 0 5 224 1 438 1 552 1 168 1 351 1
172 0 5 611 1 419 1 498 1 115 1 296 1
173 0 5 69 1 596 1 45 1 619 1 309 1
174 0 5 116 1 588 1 507 1 493 1 292 1
175 0 5 342 1 25 1 142 1 472 1 571 1
176 0 5 437 1 223 1 210 1 241 1 574 1
177 0 5 581 1 299 1 396 1 378 1 279 1
178 0 5 31 1 468 1 425 1 445 1 118 1
179 0 5 623 1 211 1 301 1 560 1 239 1
180 0 5 414 1 488 1 216 1 133 1 161 1
181 0 5 218 1 556 1 458 1 276 1 448 1
182 0 5 514 1 8 1 135 1 398 1 218 1
183 0 5 61 1 12 1 361 1 280 1 86 1
184 0 5 465 1 537 1 345 1 453 1 266 1
185 0 5 440 1 13 1 348 1 577 1 584 1
186 0 5 619 1 469 1 409 1 400 1 173 1
187 0 5 9 1 149 1 331 1 572 1 39 1
188 0 5 327 1 612 1 349 1 89 1 354 1
189 0 5 435 1 407 1 573 1 494 1 464 1
190 0 5 375 1 610 1 354 1 44 1 145 1
191 0 5 17 1 471 1 417 1 90 1 479 1
192 0 5 65 1 245 1 534 1 316 1 394 1
193 0 5 620 1 96 1 113 1 87 1 553 1
194 0 5 427 1 39 1 9 1 572 1 516 1
195 0 5 274 1 324 1 517 1 16 1 450 1
196 0 5 266 1 345 1 202 1 248 1 157 1
197 0 5 114 1 158 1 20 1 599 1 32 1
198 0 5 614 1 465 1 537 1 82 1 217 1
199 0 5 504 1 132 1 333 1 222 1 441 1
200 0 5 334 1 443 1 559 1 110 1 117 1
201 0 5 119 1 336 1 98 1 606 1 36 1
202 0 5 248 1 196 1 80 1 157 1 266 1
203 0 5 516 1 504 1 100 1 222 1 199 1
204 0 5 104 1 77 1 313 1 308 1 394 1
205 0 5 52 1 56 1 286 1 269 1 273 1
206 0 5 565 1 356 1 521 1 404 1 500 1
207 0 5 285 1 454 1 152 1 230 1 426 1
208 0 5 293 1 543 1 318 1 333 1 388 1
209 0 5 304 1 405 1 551 1 617 1 10 1
210 0 5 528 1 587 1 437 1 299 1 176 1
211 0 5 179 1 301 1 623 1 427 1 239 1
212 0 5 580 1 421 1 146 1 322 1 50 1
213 0 5 366 1 257 1 413 1 532 1 452 1
214 0 5 408 1 233 1 42 1 488 1 331 1
215 0 5 430 1 318 1 230 1 454 1 207 1
216 0 5 579 1 414 1 180 1 150 1 277 1
217 0 5 82 1 134 1 595 1 465 1 37 1
218 0 5 8 1 181 1 556 1 550 1 466 1
219 0 5 574 1 21 1 426 1 241 1 268 1
220 0 5 46 1 390 1 568 1 39 1 149 1
221 0 5 608 1 492 1 588 1 121 1 493 1
222 0 5 501 1 199 1 379 1 100 1 504 1
223 0 5 437 1 570 1 587 1 368 1 340 1
224 0 5 171 1 351 1 168 1 552 1 19 1
225 0 5 282 1 561 1 668 1 495 1 486 1
226 0 5 460 1 270 1 7 1 395 1 555 1
227 0 5 432 1 344 1 576 1 74 1 391 1
228 0 5 487 1 578 1 307 1 544 1 305 1
229 0 5 510 1 108 1 109 1 264 1 429 1
230 0 5 388 1 447 1 430 1 496 1 278 1
231 0 5 410 1 575 1 546 1 519 1 497 1
232 0 5 592 1 621 1 397 1 458 1 263 1
233 0 5 70 1 488 1 42 1 214 1 180 1
234 0 5 472 1 339 1 367 1 25 1 464 1
235 0 5 553 1 60 1 16 1 310 1 372 1
236 0 5 258 1 400 1 68 1 409 1 469 1
237 0 5 351 1 11 1 168 1 626 1 19 1
238 0 5 154 1 343 1 15 1 450 1 312 1
239 0 5 623 1 560 1 179 1 270 1 100 1
240 0 5 242 1 535 1 470 1 373 1 24 1
241 0 5 21 1 574 1 219 1 437 1 473 1
242 0 5 535 1 240 1 470 1 373 1 24 1
243 0 5 424 1 624 1 49 1 374 1 539 1
244 0 5 484 1 47 1 323 1 33 1 127 1
245 0 5 534 1 192 1 65 1 81 1 436 1
246 0 5 124 1 431 1 159 1 41 1 589 1
247 0 5 505 1 5 1 483 1 261 1 583 1
248 0 5 80 1 202 1 157 1 266 1 196 1
249 0 5 294 1 337 1 53 1 106 1 296 1
250 0 5 396 1 279 1 401 1 569 1 5 1
251 0 5 63 1 76 1 547 1 455 1 126 1
252 0 5 292 1 40 1 38 1 406 1 492 1
253 0 5 585 1 308 1 2 1 28 1 104 1
254 0 5 311 1 526 1 113 1 443 1 103 1
255 0 5 59 1 52 1 444 1 164 1 56 1
256 0 5 433 1 597 1 403 1 255 1 164 1
257 0 5 47 1 484 1 213 1 273 1 558 1
258 0 5 400 1 236 1 68 1 409 1 469 1
259 0 5 448 1 466 1 135 1 271 1 458 1
260 0 5 364 1 509 1 619 1 69 1 515 1
261 0 5 505 1 169 1 483 1 144 1 288 1
262 0 5 578 1 110 1 544 1 305 1 284 1
263 0 5 592 1 452 1 366 1 232 1 621 1
264 0 5 109 1 108 1 446 1 140 1 229 1
265 0 5 411 1 527 1 582 1 574 1 73 1
266 0 5 157 1 345 1 196 1 80 1 248 1
267 0 5 569 1 581 1 18 1 600 1 163 1
268 0 5 131 1 476 1 120 1 219 1 285 1
269 0 5 529 1 622 1 4 1 111 1 205 1
270 0 5 555 1 7 1 395 1 239 1 460 1
271 0 5 556 1 448 1 280 1 466 1 259 1
272 0 5 377 1 406 1 477 1 367 1 40 1
273 0 5 111 1 529 1 622 1 205 1 4 1
274 0 5 195 1 614 1 422 1 324 1 450 1
275 0 5 426 1 285 1 303 1 219 1 576 1
276 0 5 621 1 138 1 72 1 458 1 181 1
277 0 5 112 1 216 1 150 1 512 1 133 1
278 0 5 447 1 496 1 388 1 230 1 50 1
279 0 5 250 1 581 1 569 1 396 1 267 1
280 0 5 562 1 271 1 138 1 72 1 123 1
281 0 5 615 1 474 1 355 1 336 1 365 1
282 0 5 225 1 91 1 561 1 371 1 495 1
283 0 5 308 1 313 1 79 1 104 1 585 1
284 0 5 110 1 559 1 262 1 578 1 544 1
285 0 5 426 1 275 1 207 1 576 1 432 1
286 0 5 205 1 166 1 622 1 444 1 167 1
287 0 5 397 1 439 1 348 1 72 1 577 1
288 0 5 85 1 483 1 144 1 261 1 505 1
289 0 5 500 1 627 1 499 1 129 1 422 1
290 0 5 306 1 557 1 547 1 76 1 358 1
291 0 5 299 1 378 1 177 1 411 1 393 1
292 0 5 252 1 588 1 492 1 221 1 174 1
293 0 5 160 1 208 1 539 1 451 1 548 1
294 0 5 249 1 337 1 53 1 106 1 296 1
295 0 5 461 1 390 1 429 1 134 1 595 1
296 0 5 106 1 611 1 498 1 172 1 518 1
297 0 5 10 1 405 1 617 1 551 1 320 1
298 0 5 542 1 502 1 85 1 75 1 352 1
299 0 5 210 1 291 1 437 1 411 1 396 1
300 0 5 115 1 380 1 35 1 316 1 415 1
301 0 5 416 1 211 1 179 1 560 1 623 1
302 0 5 524 1 162 1 27 1 153 1 381 1
303 0 5 426 1 275 1 73 1 576 1 227 1
304 0 5 209 1 551 1 130 1 405 1 85 1
305 0 5 544 1 228 1 578 1 290 1 530 1
306 0 5 290 1 557 1 412 1 314 1 547 1
307 0 5 487 1 228 1 578 1 412 1 544 1
308 0 5 283 1 585 1 253 1 104 1 204 1
309 0 5 69 1 381 1 590 1 363 1 173 1
310 0 5 372 1 553 1 235 1 16 1 15 1
311 0 5 103 1 566 1 254 1 148 1 113 1
312 0 5 593 1 429 1 238 1 62 1 446 1
313 0 5 283 1 79 1 104 1 204 1 136 1
314 0 5 481 1 306 1 290 1 36 1 119 1
315 0 5 33 1 170 1 541 1 167 1 323 1
316 0 5 394 1 245 1 192 1 81 1 77 1
317 0 5 92 1 591 1 513 1 607 1 155 1
318 0 5 385 1 120 1 473 1 215 1 208 1
319 0 5 151 1 419 1 603 1 172 1 35 1
320 0 5 598 1 392 1 551 1 355 1 10 1
321 0 5 350 1 474 1 376 1 365 1 604 1
322 0 5 146 1 613 1 71 1 212 1 152 1
323 0 5 33 1 315 1 167 1 541 1 170 1
324 0 5 517 1 372 1 195 1 16 1 15 1
325 0 5 360 1 493 1 608 1 369 1 6 1
326 0 5 455 1 290 1 547 1 93 1 125 1
327 0 5 612 1 188 1 89 1 349 1 354 1
328 0 5 403 1 357 1 597 1 33 1 323 1
329 0 5 562 1 271 1 123 1 138 1 280 1
330 0 5 536 1 442 1 544 1 530 1 126 1
331 0 5 168 1 187 1 214 1 408 1 438 1
332 0 5 108 1 301 1 510 1 211 1 229 1
333 0 5 132 1 199 1 543 1 504 1 208 1
334 0 5 200 1 559 1 443 1 117 1 110 1
335 0 5 487 1 92 1 547 1 228 1 290 1
336 0 5 122 1 119 1 201 1 615 1 281 1
337 0 5 249 1 294 1 53 1 106 1 296 1
338 0 5 363 1 497 1 515 1 309 1 590 1
339 0 5 367 1 234 1 407 1 464 1 189 1
340 0 5 570 1 587 1 223 1 528 1 270 1
341 0 5 494 1 573 1 153 1 435 1 45 1
342 0 5 571 1 175 1 25 1 105 1 477 1
343 0 5 22 1 15 1 87 1 23 1 238 1
344 0 5 391 1 74 1 227 1 432 1 139 1
345 0 5 266 1 196 1 184 1 157 1 80 1
346 0 5 57 1 357 1 597 1 503 1 353 1
347 0 5 147 1 571 1 586 1 38 1 386 1
348 0 5 397 1 185 1 72 1 287 1 315 1
349 0 5 354 1 188 1 327 1 612 1 89 1
350 0 5 321 1 525 1 604 1 161 1 376 1
351 0 5 168 1 237 1 224 1 398 1 626 1
352 0 5 600 1 417 1 163 1 502 1 298 1
353 0 5 167 1 170 1 141 1 346 1 43 1
354 0 5 349 1 190 1 375 1 188 1 327 1
355 0 5 598 1 281 1 474 1 615 1 336 1
356 0 5 565 1 16 1 206 1 372 1 60 1
357 0 5 328 1 346 1 541 1 584 1 440 1
358 0 5 455 1 290 1 547 1 462 1 93 1
359 0 5 91 1 314 1 336 1 481 1 201 1
360 0 5 325 1 493 1 369 1 6 1 153 1
361 0 5 562 1 439 1 271 1 183 1 72 1
362 0 5 548 1 451 1 112 1 512 1 133 1
363 0 5 338 1 515 1 497 1 309 1 590 1
364 0 5 260 1 509 1 515 1 619 1 69 1
365 0 5 606 1 475 1 474 1 615 1 321 1
366 0 5 452 1 213 1 550 1 263 1 621 1
367 0 5 339 1 377 1 272 1 234 1 407 1
368 0 5 223 1 570 1 437 1 34 1 473 1
369 0 5 6 1 360 1 493 1 325 1 153 1
370 0 5 99 1 468 1 55 1 35 1 545 1
371 0 5 412 1 122 1 495 1 282 1 335 1
372 0 5 16 1 15 1 517 1 310 1 324 1
373 0 5 24 1 470 1 240 1 242 1 480 1
374 0 5 539 1 160 1 243 1 451 1 49 1
375 0 5 190 1 354 1 145 1 31 1 610 1
376 0 5 474 1 321 1 350 1 88 1 598 1
377 0 5 272 1 367 1 40 1 121 1 406 1
378 0 5 456 1 393 1 428 1 291 1 177 1
379 0 5 501 1 222 1 385 1 34 1 199 1
380 0 5 300 1 316 1 470 1 508 1 115 1
381 0 5 590 1 309 1 302 1 497 1 338 1
382 0 5 572 1 49 1 516 1 194 1 441 1
383 0 5 438 1 46 1 149 1 568 1 187 1
384 0 5 611 1 616 1 603 1 296 1 172 1
385 0 5 318 1 473 1 34 1 120 1 379 1
386 0 5 38 1 586 1 406 1 477 1 147 1
387 0 5 143 1 625 1 571 1 533 1 347 1
388 0 5 230 1 496 1 447 1 278 1 430 1
389 0 5 78 1 140 1 460 1 593 1 446 1
390 0 5 461 1 220 1 295 1 46 1 429 1
391 0 5 344 1 74 1 227 1 139 1 432 1
392 0 5 551 1 320 1 130 1 598 1 355 1
393 0 5 456 1 428 1 528 1 378 1 299 1
394 0 5 77 1 316 1 470 1 192 1 204 1
395 0 5 460 1 555 1 270 1 7 1 226 1
396 0 5 250 1 401 1 511 1 5 1 411 1
397 0 5 287 1 348 1 538 1 577 1 57 1
398 0 5 8 1 399 1 182 1 159 1 514 1
399 0 5 552 1 159 1 398 1 182 1 8 1
400 0 5 68 1 258 1 236 1 409 1 469 1
401 0 5 396 1 511 1 411 1 5 1 582 1
402 0 5 319 1 151 1 603 1 419 1 531 1
403 0 5 328 1 141 1 256 1 346 1 51 1
404 0 5 521 1 549 1 206 1 129 1 60 1
405 0 5 617 1 209 1 297 1 10 1 304 1
406 0 5 40 1 272 1 386 1 477 1 38 1
407 0 5 189 1 464 1 339 1 435 1 573 1
408 0 5 214 1 488 1 180 1 414 1 331 1
409 0 5 469 1 400 1 186 1 68 1 619 1
410 0 5 231 1 546 1 575 1 519 1 497 1
411 0 5 265 1 582 1 511 1 527 1 574 1
412 0 5 371 1 564 1 314 1 137 1 306 1
413 0 5 532 1 520 1 550 1 213 1 366 1
414 0 5 180 1 216 1 488 1 161 1 150 1
415 0 5 554 1 81 1 14 1 518 1 498 1
416 0 5 560 1 301 1 623 1 555 1 179 1
417 0 5 163 1 600 1 352 1 18 1 17 1
418 0 5 48 1 64 1 567 1 145 1 44 1
419 0 5 172 1 319 1 603 1 611 1 151 1
420 0 5 485 1 609 1 457 1 102 1 519 1
421 0 5 580 1 161 1 525 1 212 1 604 1
422 0 5 537 1 274 1 500 1 565 1 499 1
423 0 5 43 1 484 1 47 1 323 1 33 1
424 0 5 70 1 624 1 243 1 42 1 374 1
425 0 5 482 1 445 1 468 1 508 1 118 1
426 0 5 275 1 285 1 303 1 207 1 576 1
427 0 5 39 1 194 1 211 1 568 1 149 1
428 0 5 456 1 393 1 378 1 78 1 528 1
429 0 5 295 1 109 1 446 1 229 1 461 1
430 0 5 215 1 230 1 454 1 318 1 388 1
431 0 5 246 1 589 1 124 1 41 1 558 1
432 0 5 74 1 227 1 344 1 391 1 285 1
433 0 5 164 1 444 1 256 1 59 1 141 1
434 0 5 626 1 123 1 216 1 135 1 161 1
435 0 5 189 1 573 1 341 1 494 1 407 1
436 0 5 563 1 534 1 245 1 29 1 65 1
437 0 5 176 1 223 1 241 1 587 1 21 1
438 0 5 171 1 383 1 331 1 224 1 168 1
439 0 5 287 1 361 1 12 1 72 1 280 1
440 0 5 185 1 357 1 503 1 328 1 57 1
441 0 5 504 1 199 1 132 1 516 1 382 1
442 0 5 330 1 17 1 305 1 530 1 536 1
443 0 5 559 1 334 1 200 1 254 1 526 1
444 0 5 433 1 52 1 286 1 255 1 56 1
445 0 5 118 1 480 1 482 1 602 1 425 1
446 0 5 109 1 264 1 140 1 429 1 108 1
447 0 5 278 1 496 1 388 1 230 1 208 1
448 0 5 259 1 271 1 466 1 458 1 556 1
449 0 5 44 1 610 1 64 1 165 1 418 1
450 0 5 154 1 107 1 62 1 238 1 274 1
451 0 5 548 1 362 1 160 1 112 1 293 1
452 0 5 366 1 592 1 263 1 458 1 621 1
453 0 5 537 1 142 1 472 1 345 1 196 1
454 0 5 207 1 430 1 230 1 215 1 285 1
455 0 5 306 1 358 1 564 1 137 1 547 1
456 0 5 393 1 428 1 378 1 528 1 226 1
457 0 5 609 1 420 1 594 1 485 1 575 1
458 0 5 276 1 556 1 181 1 592 1 452 1
459 0 5 84 1 29 1 563 1 136 1 436 1
460 0 5 395 1 226 1 555 1 270 1 7 1
461 0 5 295 1 390 1 429 1 134 1 595 1
462 0 5 156 1 358 1 326 1 93 1 481 1
463 0 5 522 1 66 1 89 1 545 1 188 1
464 0 5 407 1 189 1 573 1 494 1 339 1
465 0 5 198 1 184 1 217 1 82 1 614 1
466 0 5 135 1 259 1 271 1 448 1 218 1
467 0 5 122 1 91 1 605 1 314 1 336 1
468 0 5 370 1 425 1 178 1 31 1 55 1
469 0 5 409 1 186 1 400 1 619 1 68 1
470 0 5 240 1 373 1 24 1 242 1 535 1
471 0 5 479 1 17 1 126 1 90 1 191 1
472 0 5 234 1 142 1 25 1 175 1 339 1
473 0 5 120 1 385 1 318 1 34 1 268 1
474 0 5 615 1 281 1 321 1 376 1 365 1
475 0 5 122 1 525 1 365 1 606 1 321 1
476 0 5 268 1 207 1 285 1 131 1 426 1
477 0 5 105 1 571 1 272 1 386 1 406 1
478 0 5 122 1 490 1 579 1 525 1 605 1
479 0 5 471 1 17 1 126 1 90 1 330 1
480 0 5 118 1 445 1 602 1 24 1 373 1
481 0 5 314 1 462 1 455 1 36 1 547 1
482 0 5 508 1 425 1 445 1 602 1 480 1
483 0 5 505 1 261 1 288 1 169 1 144 1
484 0 5 83 1 244 1 423 1 315 1 47 1
485 0 5 420 1 519 1 609 1 457 1 102 1
486 0 5 561 1 92 1 155 1 225 1 495 1
487 0 5 335 1 228 1 307 1 155 1 290 1
488 0 5 180 1 408 1 233 1 414 1 214 1
489 0 5 591 1 128 1 92 1 129 1 549 1
490 0 5 525 1 478 1 123 1 475 1 606 1
491 0 5 165 1 28 1 64 1 242 1 535 1
492 0 5 121 1 221 1 608 1 40 1 588 1
493 0 5 325 1 6 1 588 1 360 1 608 1
494 0 5 573 1 341 1 45 1 596 1 189 1
495 0 5 561 1 92 1 371 1 225 1 605 1
496 0 5 447 1 388 1 278 1 230 1 208 1
497 0 5 546 1 338 1 590 1 363 1 410 1
498 0 5 518 1 172 1 14 1 296 1 415 1
499 0 5 627 1 289 1 500 1 422 1 129 1
500 0 5 289 1 565 1 499 1 627 1 422 1
501 0 5 379 1 222 1 199 1 385 1 333 1
502 0 5 298 1 352 1 542 1 600 1 85 1
503 0 5 30 1 584 1 440 1 346 1 51 1
504 0 5 199 1 441 1 132 1 203 1 333 1
505 0 5 483 1 261 1 169 1 247 1 5 1
506 0 5 583 1 26 1 139 1 617 1 505 1
507 0 5 116 1 32 1 174 1 594 1 20 1
508 0 5 482 1 602 1 24 1 480 1 425 1
509 0 5 364 1 515 1 260 1 248 1 80 1
510 0 5 229 1 108 1 109 1 264 1 332 1
511 0 5 411 1 582 1 401 1 396 1 265 1
512 0 5 133 1 112 1 548 1 362 1 150 1
513 0 5 607 1 591 1 549 1 97 1 540 1
514 0 5 182 1 11 1 135 1 237 1 626 1
515 0 5 509 1 363 1 364 1 338 1 260 1
516 0 5 203 1 572 1 504 1 194 1 382 1
517 0 5 15 1 372 1 324 1 195 1 310 1
518 0 5 14 1 554 1 498 1 415 1 81 1
519 0 5 485 1 420 1 575 1 231 1 410 1
520 0 5 124 1 413 1 558 1 532 1 213 1
521 0 5 404 1 565 1 206 1 356 1 60 1
522 0 5 463 1 66 1 545 1 55 1 188 1
523 0 5 530 1 544 1 126 1 305 1 547 1
524 0 5 162 1 27 1 302 1 153 1 102 1
525 0 5 490 1 579 1 604 1 350 1 421 1
526 0 5 95 1 254 1 311 1 443 1 103 1
527 0 5 265 1 411 1 73 1 303 1 401 1
528 0 5 210 1 587 1 340 1 393 1 456 1
529 0 5 52 1 56 1 286 1 269 1 273 1
530 0 5 523 1 544 1 290 1 305 1 536 1
531 0 5 522 1 463 1 66 1 545 1 55 1
532 0 5 413 1 550 1 213 1 520 1 366 1
533 0 5 571 1 387 1 625 1 143 1 347 1
534 0 5 436 1 245 1 65 1 192 1 563 1
535 0 5 242 1 240 1 470 1 373 1 77 1
536 0 5 330 1 530 1 305 1 544 1 578 1
537 0 5 422 1 453 1 184 1 198 1 614 1
538 0 5 397 1 592 1 232 1 621 1 458 1
539 0 5 374 1 160 1 293 1 451 1 243 1
540 0 5 97 1 549 1 591 1 94 1 129 1
541 0 5 597 1 357 1 315 1 33 1 353 1
542 0 5 298 1 85 1 75 1 125 1 502 1
543 0 5 208 1 333 1 132 1 293 1 199 1
544 0 5 228 1 306 1 307 1 305 1 578 1
545 0 5 66 1 55 1 99 1 522 1 370 1
546 0 5 497 1 410 1 231 1 590 1 519 1
547 0 5 306 1 290 1 137 1 564 1 455 1
548 0 5 451 1 362 1 512 1 133 1 112 1
549 0 5 97 1 540 1 591 1 94 1 513 1
550 0 5 366 1 532 1 413 1 218 1 232 1
551 0 5 392 1 130 1 304 1 209 1 10 1
552 0 5 399 1 171 1 224 1 351 1 159 1
553 0 5 235 1 60 1 96 1 310 1 620 1
554 0 5 415 1 14 1 81 1 518 1 498 1
555 0 5 270 1 395 1 416 1 460 1 239 1
556 0 5 271 1 458 1 181 1 138 1 218 1
557 0 5 290 1 564 1 91 1 306 1 137 1
558 0 5 67 1 269 1 273 1 520 1 257 1
559 0 5 443 1 284 1 334 1 200 1 110 1
560 0 5 416 1 623 1 301 1 239 1 179 1
561 0 5 282 1 495 1 486 1 225 1 635 1
562 0 5 280 1 329 1 61 1 654 1 631 1
563 0 5 436 1 29 1 136 1 534 1 459 1
564 0 5 557 1 412 1 137 1 455 1 547 1
565 0 5 206 1 500 1 356 1 521 1 422 1
566 0 5 103 1 311 1 148 1 254 1 113 1
567 0 5 48 1 418 1 64 1 480 1 118 1
568 0 5 46 1 149 1 39 1 220 1 427 1
569 0 5 267 1 581 1 600 1 18 1 163 1
570 0 5 340 1 223 1 587 1 368 1 437 1
571 0 5 533 1 342 1 625 1 387 1 477 1
572 0 5 382 1 49 1 194 1 516 1 624 1
573 0 5 494 1 341 1 189 1 435 1 45 1
574 0 5 219 1 241 1 21 1 411 1 265 1
575 0 5 231 1 410 1 519 1 457 1 485 1
576 0 5 227 1 426 1 285 1 432 1 275 1
577 0 5 397 1 185 1 72 1 287 1 33 1
578 0 5 228 1 307 1 305 1 306 1 544 1
579 0 5 161 1 525 1 123 1 216 1 478 1
580 0 5 212 1 421 1 216 1 604 1 146 1
581 0 5 569 1 267 1 163 1 279 1 18 1
582 0 5 411 1 511 1 265 1 401 1 527 1
583 0 5 506 1 26 1 139 1 505 1 617 1
584 0 5 503 1 357 1 51 1 185 1 403 1
585 0 5 253 1 308 1 2 1 28 1 283 1
586 0 5 38 1 147 1 386 1 347 1 406 1
587 0 5 340 1 570 1 223 1 528 1 210 1
588 0 5 221 1 174 1 608 1 493 1 292 1
589 0 5 431 1 41 1 67 1 269 1 124 1
590 0 5 381 1 497 1 309 1 546 1 519 1
591 0 5 317 1 128 1 129 1 489 1 540 1
592 0 5 232 1 263 1 621 1 538 1 458 1
593 0 5 78 1 54 1 312 1 446 1 389 1
594 0 5 32 1 599 1 457 1 507 1 20 1
595 0 5 37 1 134 1 107 1 618 1 82 1
596 0 5 45 1 494 1 173 1 573 1 341 1
597 0 5 167 1 170 1 541 1 328 1 141 1
598 0 5 355 1 320 1 376 1 88 1 474 1
599 0 5 32 1 594 1 158 1 20 1 114 1
600 0 5 352 1 417 1 163 1 18 1 502 1
601 0 5 562 1 72 1 185 1 271 1 439 1
602 0 5 508 1 480 1 24 1 445 1 482 1
603 0 5 319 1 419 1 611 1 384 1 172 1
604 0 5 525 1 161 1 350 1 580 1 321 1
605 0 5 122 1 467 1 478 1 490 1 579 1
606 0 5 122 1 365 1 475 1 525 1 615 1
607 0 5 513 1 591 1 228 1 117 1 94 1
608 0 5 221 1 492 1 121 1 588 1 493 1
609 0 5 420 1 102 1 457 1 485 1 27 1
610 0 5 44 1 449 1 190 1 145 1 418 1
611 0 5 172 1 296 1 384 1 603 1 419 1
612 0 5 327 1 89 1 188 1 349 1 463 1
613 0 5 71 1 322 1 146 1 152 1 74 1
614 0 5 198 1 274 1 537 1 450 1 465 1
615 0 5 474 1 281 1 365 1 606 1 321 1
616 0 5 384 1 296 1 611 1 603 1 172 1
617 0 5 139 1 405 1 506 1 583 1 26 1
618 0 5 107 1 37 1 62 1 595 1 450 1
619 0 5 186 1 469 1 173 1 260 1 409 1
620 0 5 96 1 193 1 87 1 553 1 113 1
621 0 5 276 1 232 1 592 1 366 1 452 1
622 0 5 52 1 56 1 286 1 269 1 273 1
623 0 5 179 1 239 1 560 1 211 1 301 1
624 0 5 424 1 49 1 243 1 42 1 572 1
625 0 5 571 1 387 1 347 1 533 1 143 1
626 0 5 19 1 11 1 434 1 259 1 514 1
627 0 5 289 1 499 1 143 1 500 1 533 1
628 0 5 645 1 646 1 629 1 630 1 631 1
629 0 5 645 1 646 1 629 1 630 1 631 1
630 0 5 645 1 646 1 629 1 630 1 631 1
631 0 5 645 1 646 1 629 1 630 1 631 1
632 0 5 645 1 646 1 629 1 630 1 631 1
633 0 5 645 1 646 1 629 1 630 1 631 1
634 0 5 645 1 646 1 629 1 630 1 631 1
635 0 5 645 1 646 1 629 1 630 1 631 1
636 0 5 645 1 646 1 629 1 630 1 631 1
637 0 5 645 1 646 1 629 1 630 1 631 1
638 0 5 645 1 646 1 629 1 630 1 631 1
639 0 5 645 1 646 1 629 1 630 1 631 1
640 0 5 645 1 646 1 629 1 630 1 631 1
641 0 5 645 1 646 1 629 1 630 1 631 1
642 0 5 645 1 646 1 629 1 630 1 631 1
643 0 5 645 1 646 1 629 1 630 1 631 1
644 0 5 645 1 646 1 629 1 630 1 631 1
645 0 5 645 1 646 1 629 1 630 1 631 1
646 0 5 645 1 646 1 629 1 630 1 631 1
647 0 5 645 1 646 1 629 1 630 1 631 1
648 0 5 645 1 646 1 629 1 630 1 631 1
649 0 5 645 1 646 1 629 1 630 1 631 1
650 0 5 645 1 646 1 629 1 630 1 631 1
651 0 5 645 1 646 1 629 1 630 1 631 1
652 0 5 645 1 646 1 629 1 630 1 631 1
653 0 5 645 1 646 1 629 1 630 1 631 1
654 0 5 645 1 646 1 629 1 630 1 631 1
655 0 5 645 1 646 1 629 1 630 1 631 1
656 0 5 645 1 646 1 629 1 630 1 631 1
657 0 5 645 1 646 1 629 1 630 1 631 1
658 0 5 645 1 646 1 629 1 630 1 631 1
659 0 5 645 1 646 1 629 1 630 1 631 1
660 0 5 645 1 646 1 629 1 630 1 631 1
661 0 5 645 1 646 1 629 1 630 1 631 1
662 0 5 645 1 646 1 629 1 630 1 631 1
663 0 5 645 1 646 1 629 1 630 1 631 1
664 0 5 645 1 646 1 629 1 630 1 631 1
665 0 5 645 1 646 1 629 1 630 1 631 1
666 0 5 645 1 646 1 629 1 630 1 631 1
667 0 5 645 1 646 1 629 1 630 1 631 1
668 0 5 645 1 646 1 629 1 630 1 631 1
669 0 5 645 1 646 1 629 1 630 1 631 1
-1
EOF
